c This is an instance of the exact track of PACE 2020 Challenge, see https://pacechallenge.org/2020/ 
c TYPE: biology 
c ORIGIN: ginsim.org/models_repository 
c DESCRIPTION: nan 
p tdp 18 18
1 17
2 10
3 7
4 10
5 17
6 16
7 15
8 16
10 17
11 7
12 9
13 17
14 9
15 2
16 14
16 12
17 6
18 7
